# Objective value = 1.9565001173439832e+03
x[0] 1
x[1] 1
x[2] 0
x[3] 0
x[4] 1
x[5] 1
x[6] 1
x[7] 0
x[8] 0
x[9] 1
x[10] 1
x[11] 1
x[12] 0
x[13] 1
x[14] 0
x[15] 0
x[16] 1
x[17] 1
x[18] 1
x[19] 1
x[20] 0
x[21] 1
x[22] 0
x[23] 0
x[24] 0
x[25] 1
x[26] 1
x[27] 1
x[28] 1
x[29] 1
x[30] 0
x[31] 1
x[32] 0
x[33] 1
x[34] 0
x[35] 0
x[36] 1
x[37] 1
x[38] 1
x[39] 0
x[40] 1
x[41] 1
x[42] 0
x[43] 0
x[44] 1
x[45] 1
x[46] 1
x[47] 0
x[48] 1
x[49] 0
x[50] 1
x[51] 0
x[52] 0
x[53] 0
x[54] 0
x[55] 1
x[56] 0
x[57] 1
x[58] 0
x[59] 1
x[60] 1
x[61] 1
x[62] 0
x[63] 1
x[64] 1
x[65] 0
x[66] 1
x[67] 0
x[68] 0
x[69] 1
x[70] 0
x[71] 0
x[72] 1
x[73] 1
x[74] 0
x[75] 0
x[76] 0
x[77] 0
x[78] 0
x[79] 0
x[80] 1
x[81] 1
x[82] 1
x[83] 0
x[84] 1
x[85] 0
x[86] 1
x[87] 1
x[88] 1
x[89] 0
x[90] 0
x[91] 1
x[92] 1
x[93] 0
x[94] 1
x[95] 0
x[96] 0
x[97] 0
x[98] 0
x[99] 0
x[100] 1
x[101] 1
x[102] 0
x[103] 1
x[104] 1
x[105] 1
x[106] 0
x[107] 1
x[108] 0
x[109] 1
x[110] 0
x[111] 1
x[112] 1
x[113] 0
x[114] 1
x[115] 0
x[116] 0
x[117] 0
x[118] 0
x[119] 0
x[120] 0
x[121] 1
x[122] 1
x[123] 1
x[124] 1
x[125] 0
x[126] 0
x[127] 1
x[128] 1
x[129] 1
x[130] 0
x[131] 0
x[132] 0
x[133] 0
x[134] 0
x[135] 0
x[136] 1
x[137] 0
x[138] 1
x[139] 0
x[140] 1
x[141] 1
x[142] 0
x[143] 1
x[144] 1
x[145] 1
x[146] 1
x[147] 1
x[148] 1
x[149] 0
x[150] 1
x[151] 1
x[152] 1
x[153] 1
x[154] 1
x[155] 1
x[156] 1
x[157] 0
x[158] 0
x[159] 1
x[160] 1
x[161] 1
x[162] 1
x[163] 1
x[164] 1
x[165] 0
x[166] 0
x[167] 1
x[168] 1
x[169] 0
x[170] 1
x[171] 1
x[172] 0
x[173] 0
x[174] 0
x[175] 1
x[176] 1
x[177] 1
x[178] 1
x[179] 1
x[180] 0
x[181] 0
x[182] 1
x[183] 1
x[184] 0
x[185] 1
x[186] 1
x[187] 0
x[188] 1
x[189] 0
x[190] 1
x[191] 1
x[192] 1
x[193] 1
x[194] 0
x[195] 1
x[196] 1
x[197] 1
x[198] 1
x[199] 0
x[200] 0
x[201] 1
x[202] 1
x[203] 0
x[204] 0
x[205] 1
x[206] 1
x[207] 1
x[208] 0
x[209] 1
x[210] 0
x[211] 1
x[212] 0
x[213] 1
x[214] 1
x[215] 0
x[216] 1
x[217] 1
x[218] 1
x[219] 0
x[220] 0
x[221] 1
x[222] 1
x[223] 1
x[224] 1
x[225] 1
x[226] 1
x[227] 0
x[228] 0
x[229] 1
x[230] 1
x[231] 0
x[232] 1
x[233] 1
x[234] 1
x[235] 1
x[236] 0
x[237] 1
x[238] 0
x[239] 1
x[240] 1
x[241] 0
x[242] 0
x[243] 1
x[244] 1
x[245] 1
x[246] 1
x[247] 0
x[248] 1
x[249] 1
x[250] 0
x[251] 0
x[252] 1
x[253] 0
x[254] 0
x[255] 0
x[256] 1
x[257] 1
x[258] 0
x[259] 1
x[260] 1
x[261] 1
x[262] 1
x[263] 1
x[264] 0
x[265] 0
x[266] 0
x[267] 1
x[268] 1
x[269] 1
x[270] 1
x[271] 1
x[272] 0
x[273] 1
x[274] 1
x[275] 0
x[276] 1
x[277] 0
x[278] 1
x[279] 0
x[280] 1
x[281] 1
x[282] 0
x[283] 1
x[284] 1
x[285] 0
x[286] 1
x[287] 0
x[288] 0
x[289] 1
x[290] 1
x[291] 0
x[292] 0
x[293] 1
x[294] 1
x[295] 0
x[296] 1
x[297] 0
x[298] 0
x[299] 0
x[300] 1
x[301] 1
x[302] 0
x[303] 1
x[304] 0
x[305] 0
x[306] 0
x[307] 1
x[308] 0
x[309] 0
x[310] 1
x[311] 0
x[312] 0
x[313] 0
x[314] 0
x[315] 0
x[316] 0
x[317] 0
x[318] 0
x[319] 0
x[320] 1
x[321] 1
x[322] 0
x[323] 0
x[324] 0
x[325] 1
x[326] 1
x[327] 1
x[328] 1
x[329] 1
x[330] 0
x[331] 1
x[332] 1
x[333] 1
x[334] 0
x[335] 0
x[336] 1
x[337] 1
x[338] 1
x[339] 1
x[340] 1
x[341] 1
x[342] 1
x[343] 0
x[344] 1
x[345] 1
x[346] 1
x[347] 1
x[348] 0
x[349] 1
x[350] 1
x[351] 0
x[352] 0
x[353] 1
x[354] 1
x[355] 1
x[356] 0
x[357] 1
x[358] 0
x[359] 1
x[360] 0
x[361] 0
x[362] 1
x[363] 0
x[364] 1
x[365] 1
x[366] 1
x[367] 1
x[368] 1
x[369] 0
x[370] 1
x[371] 0
x[372] 1
x[373] 1
x[374] 1
x[375] 1
x[376] 1
x[377] 1
x[378] 1
x[379] 1
x[380] 1
x[381] 0
x[382] 0
x[383] 1
x[384] 1
x[385] 1
x[386] 1
x[387] 0
x[388] 1
x[389] 1
x[390] 1
x[391] 1
x[392] 0
x[393] 0
x[394] 1
x[395] 1
x[396] 0
x[397] 1
x[398] 0
x[399] 1
x[400] 1
x[401] 1
x[402] 0
x[403] 1
x[404] 1
x[405] 1
x[406] 1
x[407] 1
x[408] 1
x[409] 0
x[410] 0
x[411] 0
x[412] 1
x[413] 0
x[414] 1
x[415] 0
x[416] 0
x[417] 0
x[418] 0
x[419] 0
x[420] 1
x[421] 1
x[422] 1
x[423] 0
x[424] 0
x[425] 1
x[426] 0
x[427] 1
x[428] 0
x[429] 1
x[430] 0
x[431] 0
x[432] 1
x[433] 0
x[434] 1
x[435] 0
x[436] 0
x[437] 1
x[438] 0
x[439] 0
x[440] 1
x[441] 1
x[442] 0
x[443] 1
x[444] 0
x[445] 1
x[446] 0
x[447] 0
x[448] 1
x[449] 1
x[450] 1
x[451] 0
x[452] 1
x[453] 0
x[454] 0
x[455] 1
x[456] 1
x[457] 0
x[458] 0
x[459] 1
x[460] 0
x[461] 1
x[462] 0
x[463] 1
x[464] 0
x[465] 0
x[466] 1
x[467] 0
x[468] 1
x[469] 1
x[470] 1
x[471] 1
x[472] 1
x[473] 0
x[474] 0
x[475] 1
x[476] 1
x[477] 0
x[478] 0
x[479] 1
x[480] 0
x[481] 1
x[482] 1
x[483] 0
x[484] 1
x[485] 0
x[486] 0
x[487] 0
x[488] 1
x[489] 1
x[490] 1
x[491] 0
x[492] 1
x[493] 1
x[494] 1
x[495] 1
x[496] 0
x[497] 0
x[498] 1
x[499] 1
x[500] 0
x[501] 1
x[502] 0
x[503] 1
x[504] 1
x[505] 1
x[506] 0
x[507] 0
x[508] 1
x[509] 1
x[510] 1
x[511] 0
x[512] 1
x[513] 1
x[514] 1
x[515] 1
x[516] 0
x[517] 1
x[518] 1
x[519] 0
x[520] 0
x[521] 0
x[522] 0
x[523] 0
x[524] 1
x[525] 0
x[526] 0
x[527] 1
x[528] 0
x[529] 1
x[530] 0
x[531] 0
x[532] 0
x[533] 1
x[534] 1
x[535] 1
x[536] 0
x[537] 0
x[538] 1
x[539] 0
x[540] 0
x[541] 1
x[542] 1
x[543] 0
x[544] 1
x[545] 0
x[546] 0
x[547] 1
x[548] 1
x[549] 1
x[550] 1
x[551] 1
x[552] 0
x[553] 0
x[554] 1
x[555] 1
x[556] 0
x[557] 0
x[558] 1
x[559] 1
x[560] 1
x[561] 1
x[562] 1
x[563] 0
x[564] 0
x[565] 0
x[566] 1
x[567] 1
x[568] 0
x[569] 1
x[570] 1
x[571] 0
x[572] 0
x[573] 0
x[574] 0
x[575] 1
x[576] 0
x[577] 1
x[578] 0
x[579] 0
x[580] 0
x[581] 0
x[582] 1
x[583] 1
x[584] 1
x[585] 0
x[586] 1
x[587] 1
x[588] 0
x[589] 1
x[590] 1
x[591] 0
x[592] 0
x[593] 1
x[594] 1
x[595] 0
x[596] 1
x[597] 1
x[598] 0
x[599] 1
x[600] 0
x[601] 0
x[602] 1
x[603] 1
x[604] 1
x[605] 0
x[606] 1
x[607] 0
x[608] 0
x[609] 0
x[610] 1
x[611] 1
x[612] 1
x[613] 0
x[614] 0
x[615] 1
x[616] 0
x[617] 1
x[618] 0
x[619] 0
x[620] 1
x[621] 1
x[622] 0
x[623] 0
x[624] 0
x[625] 1
x[626] 0
x[627] 0
x[628] 0
x[629] 1
x[630] 1
x[631] 1
x[632] 1
x[633] 0
x[634] 1
x[635] 1
x[636] 0
x[637] 0
x[638] 1
x[639] 1
x[640] 1
x[641] 0
x[642] 0
x[643] 0
x[644] 0
x[645] 0
x[646] 1
x[647] 1
x[648] 1
x[649] 0
x[650] 0
x[651] 1
x[652] 1
x[653] 1
x[654] 1
x[655] 0
x[656] 1
x[657] 1
x[658] 0
x[659] 0
x[660] 1
x[661] 1
x[662] 0
x[663] 1
x[664] 1
x[665] 1
x[666] 1
x[667] 0
x[668] 0
x[669] 1
x[670] 1
x[671] 1
x[672] 1
x[673] 0
x[674] 1
x[675] 1
x[676] 1
x[677] 1
x[678] 0
x[679] 0
x[680] 0
x[681] 0
x[682] 1
x[683] 0
x[684] 0
x[685] 1
x[686] 0
x[687] 1
x[688] 0
x[689] 1
x[690] 1
x[691] 0
x[692] 0
x[693] 1
x[694] 1
x[695] 0
x[696] 1
x[697] 0
x[698] 0
x[699] 1
x[700] 1
x[701] 1
x[702] 0
x[703] 0
x[704] 0
x[705] 0
x[706] 1
x[707] 1
x[708] 1
x[709] 1
x[710] 0
x[711] 1
x[712] 1
x[713] 0
x[714] 1
x[715] 1
x[716] 1
x[717] 1
x[718] 1
x[719] 0
x[720] 1
x[721] 1
x[722] 0
x[723] 0
x[724] 0
x[725] 1
x[726] 0
x[727] 1
x[728] 0
x[729] 0
x[730] 0
x[731] 0
x[732] 1
x[733] 1
x[734] 0
x[735] 1
x[736] 1
x[737] 0
x[738] 0
x[739] 0
x[740] 1
x[741] 0
x[742] 1
x[743] 0
x[744] 1
x[745] 0
x[746] 0
x[747] 0
x[748] 0
x[749] 1
x[750] 0
x[751] 1
x[752] 0
x[753] 1
x[754] 0
x[755] 0
x[756] 1
x[757] 0
x[758] 1
x[759] 1
x[760] 0
x[761] 1
x[762] 1
x[763] 0
x[764] 1
x[765] 1
x[766] 1
x[767] 0
x[768] 0
x[769] 1
x[770] 0
x[771] 1
x[772] 1
x[773] 1
x[774] 1
x[775] 1
x[776] 0
x[777] 1
x[778] 0
x[779] 1
x[780] 1
x[781] 1
x[782] 0
x[783] 0
x[784] 0
x[785] 0
x[786] 1
x[787] 0
x[788] 1
x[789] 0
x[790] 1
x[791] 1
x[792] 0
x[793] 1
x[794] 0
x[795] 0
x[796] 0
x[797] 0
x[798] 1
x[799] 1
x[800] 1
x[801] 1
x[802] 1
x[803] 1
x[804] 1
x[805] 1
x[806] 1
x[807] 0
x[808] 0
x[809] 1
x[810] 1
x[811] 1
x[812] 0
x[813] 0
x[814] 1
x[815] 0
x[816] 0
x[817] 0
x[818] 1
x[819] 1
x[820] 1
x[821] 1
x[822] 1
x[823] 1
x[824] 0
x[825] 1
x[826] 1
x[827] 0
x[828] 0
x[829] 0
x[830] 1
x[831] 0
x[832] 1
x[833] 0
x[834] 0
x[835] 1
x[836] 1
x[837] 0
x[838] 1
x[839] 1
x[840] 1
x[841] 1
x[842] 1
x[843] 0
x[844] 1
x[845] 1
x[846] 0
x[847] 1
x[848] 0
x[849] 1
x[850] 1
x[851] 0
x[852] 0
x[853] 1
x[854] 1
x[855] 0
x[856] 0
x[857] 1
x[858] 1
x[859] 0
x[860] 1
x[861] 1
x[862] 1
x[863] 1
x[864] 0
x[865] 1
x[866] 1
x[867] 0
x[868] 1
x[869] 0
x[870] 1
x[871] 1
x[872] 0
x[873] 1
x[874] 0
x[875] 0
x[876] 1
x[877] 1
x[878] 1
x[879] 1
x[880] 1
x[881] 0
x[882] 1
x[883] 0
x[884] 0
x[885] 0
x[886] 0
x[887] 1
x[888] 0
x[889] 1
x[890] 1
x[891] 0
x[892] 1
x[893] 0
x[894] 1
x[895] 1
x[896] 0
x[897] 0
x[898] 0
x[899] 0
x[900] 0
x[901] 1
x[902] 0
x[903] 0
x[904] 0
x[905] 0
x[906] 0
x[907] 1
x[908] 0
x[909] 1
x[910] 0
x[911] 1
x[912] 1
x[913] 1
x[914] 1
x[915] 0
x[916] 0
x[917] 0
x[918] 1
x[919] 0
x[920] 1
x[921] 1
x[922] 1
x[923] 1
x[924] 1
x[925] 1
x[926] 1
x[927] 0
x[928] 1
x[929] 0
x[930] 0
x[931] 0
x[932] 1
x[933] 1
x[934] 1
x[935] 0
x[936] 1
x[937] 1
x[938] 1
x[939] 1
x[940] 0
x[941] 1
x[942] 0
x[943] 0
x[944] 0
x[945] 1
x[946] 1
x[947] 1
x[948] 1
x[949] 0
x[950] 1
x[951] 0
x[952] 0
x[953] 0
x[954] 0
x[955] 0
x[956] 0
x[957] 1
x[958] 1
x[959] 0
x[960] 0
x[961] 1
x[962] 0
x[963] 1
x[964] 1
x[965] 1
x[966] 1
x[967] 1
x[968] 1
x[969] 0
x[970] 1
x[971] 1
x[972] 0
x[973] 1
x[974] 1
x[975] 1
x[976] 0
x[977] 1
x[978] 1
x[979] 1
x[980] 0
x[981] 0
x[982] 1
x[983] 1
x[984] 1
x[985] 1
x[986] 1
x[987] 1
x[988] 1
x[989] 1
x[990] 0
x[991] 0
x[992] 0
x[993] 1
x[994] 0
x[995] 1
x[996] 1
x[997] 1
x[998] 0
x[999] 1
